NAME : R107.10646.tour
COMMENT : Cost = 0_10646
COMMENT : Found by LKH [Keld Helsgaun] Wed Sep 13 18:47:24 2017
TYPE : TOUR
DIMENSION : 111
TOUR_SECTION
1
61
84
46
47
9
85
6
18
62
86
94
111
3
58
16
42
23
76
57
5
75
74
59
103
43
44
15
45
39
87
17
92
101
38
99
110
54
41
107
95
97
93
60
100
7
88
98
96
14
106
53
8
63
12
64
91
33
67
21
52
51
109
22
73
40
24
68
56
26
55
27
108
28
70
31
89
32
11
71
2
105
34
82
66
72
10
36
35
4
78
102
29
77
80
79
30
25
69
81
13
104
49
48
37
65
50
20
83
19
90
-1
EOF
